(set-logic QF_S)
(set-info :source |
  James Brotherston, Carsten Fuhs, Nikos Gorogiannis, and Juan Navarro Pérez.
  A decision procedure for satisfiability in separation logic with inductive
  predicates. To appear at CSL-LICS, 2014.
  https://github.com/ngorogiannis/cyclist
|)
(set-info :smt-lib-version 2.0)
(set-info :category "crafted")
(set-info :status unknown)



;generic sort 

(declare-sort GTyp 0)

;generic fields 
(declare-fun f0 () (Field GTyp GTyp))
(declare-fun f1 () (Field GTyp GTyp))

;predicates 

(define-fun zero ((?x GTyp)) Space 

	(tospace (= nil ?x))
)


(define-fun one ((?x GTyp)) Space 

	(tospace (distinct nil ?x))
)


(define-fun bool ((?x GTyp)) Space 
(tospace (or 
(tobool (zero ?x))
(tobool (one ?x))))
)


(define-fun bitvector ((?x1 GTyp)) Space 
(bool ?x1))


;vars 

;problem 
(declare-fun x0 () GTyp)

(assert (tobool (bitvector  x0)))

(check-sat)
